16:13:10 INFO: starting simulation...
16:13:10 INFO: num_compartments: 3
16:13:10 INFO: num_products: 3
16:13:10 INFO: num_destinations: 2
16:13:10 INFO: capacity_compartments: [809.76270079 843.03787327 820.55267521]
16:13:10 INFO: size_package: [20.44883183 19.23654799 21.45894113]
16:13:10 INFO: demand: [array([14., 22., 23.]), array([ 7., 15., 10.])]
16:13:10 INFO: simulation end
16:13:10 INFO: getting data from instance...
16:13:10 INFO: SimpleTruckLoadingProblem
16:13:10 INFO: Academic license - for non-commercial use only - expires 2021-08-08
16:13:10 INFO: Using license file C:\Users\54498\gurobi.lic
16:13:10 INFO: Changed value of parameter MIPgap to 0.001
16:13:10 INFO:    Prev: 0.0001  Min: 0.0  Max: inf  Default: 0.0001
16:13:10 INFO: Changed value of parameter TimeLimit to 5.0
16:13:10 INFO:    Prev: inf  Min: 0.0  Max: inf  Default: inf
16:13:10 INFO: Parameter OutputFlag unchanged
16:13:10 INFO:    Value: 1  Min: 0  Max: 1  Default: 1
16:13:10 INFO: Changed value of parameter LogFile to ./logs/gurobi.log
16:13:10 INFO:    Prev:   Default: 
16:13:10 INFO: Gurobi Optimizer version 9.1.2 build v9.1.2rc0 (win64)
16:13:10 INFO: Thread count: 4 physical cores, 8 logical processors, using up to 8 threads
16:13:10 INFO: Optimize a model with 9 rows, 19 columns and 42 nonzeros
16:13:10 INFO: Model fingerprint: 0x3545ca9d
16:13:10 INFO: Variable types: 1 continuous, 18 integer (0 binary)
16:13:10 INFO: Coefficient statistics:
16:13:10 INFO:   Matrix range     [1e+00, 2e+01]
16:13:10 INFO:   Objective range  [1e+00, 1e+00]
16:13:10 INFO:   Bounds range     [0e+00, 0e+00]
16:13:10 INFO:   RHS range        [8e+02, 8e+02]
16:13:10 INFO: Found heuristic solution: objective -0.0000000
16:13:10 INFO: Presolve time: 0.00s
16:13:10 INFO: Presolved: 9 rows, 19 columns, 42 nonzeros
16:13:10 INFO: Variable types: 1 continuous, 18 integer (0 binary)
16:13:10 INFO: 
16:13:10 INFO: Root relaxation: objective 1.337437e+00, 17 iterations, 0.00 seconds
16:13:10 INFO: 
16:13:10 INFO:     Nodes    |    Current Node    |     Objective Bounds      |     Work
16:13:10 INFO:  Expl Unexpl |  Obj  Depth IntInf | Incumbent    BestBd   Gap | It/Node Time
16:13:10 INFO: 
16:13:10 INFO:      0     0    1.33744    0    8   -0.00000    1.33744      -     -    0s
16:13:10 INFO: H    0     0                       1.1428571    1.33744  17.0%     -    0s
16:13:10 INFO: H    0     0                       1.3000000    1.33744  2.88%     -    0s
16:13:10 INFO:      0     0    1.31630    0    8    1.30000    1.31630  1.25%     -    0s
16:13:10 INFO:      0     0    1.30619    0    7    1.30000    1.30619  0.48%     -    0s
16:13:10 INFO:      0     0    1.30597    0    7    1.30000    1.30597  0.46%     -    0s
16:13:10 INFO:      0     0    1.30597    0   10    1.30000    1.30597  0.46%     -    0s
16:13:10 INFO:      0     0    1.30597    0   10    1.30000    1.30597  0.46%     -    0s
16:13:10 INFO:      0     0    1.30597    0    7    1.30000    1.30597  0.46%     -    0s
16:13:10 INFO:      0     0    1.30597    0    8    1.30000    1.30597  0.46%     -    0s
16:13:10 INFO:      0     0    1.30597    0   10    1.30000    1.30597  0.46%     -    0s
16:13:10 INFO:      0     0    1.30597    0   11    1.30000    1.30597  0.46%     -    0s
16:13:10 INFO:      0     0    1.30597    0   10    1.30000    1.30597  0.46%     -    0s
16:13:10 INFO:      0     1    1.30597    0    9    1.30000    1.30597  0.46%     -    0s
16:13:10 INFO: 
16:13:10 INFO: Cutting planes:
16:13:10 INFO:   Gomory: 1
16:13:10 INFO:   MIR: 8
16:13:10 INFO:   StrongCG: 4
16:13:10 INFO: 
16:13:10 INFO: Explored 564 nodes (661 simplex iterations) in 0.11 seconds
16:13:10 INFO: Thread count was 8 (of 8 available processors)
16:13:10 INFO: 
16:13:10 INFO: Solution count 3: 1.3 1.14286 -0 
16:13:10 INFO: 
16:13:10 INFO: Optimal solution found (tolerance 1.00e-03)
16:13:10 INFO: Best objective 1.300000000000e+00, best bound 1.300000000000e+00, gap 0.0000%
